unsat
(define-fun inv ((s (_ BitVec 4)) (t (_ BitVec 4))) (_ BitVec 4) (bvand (bvsub s #b0001) (bvsub t #b0001)))
35.36user 0.30system 0:35.66elapsed 99%CPU (0avgtext+0avgdata 471124maxresident)k
0inputs+8outputs (0major+122156minor)pagefaults 0swaps
